NAME : Side effect 10
COMMENT : Generated for OptaPlanner. Demonstrates a side effect on the optimal solution in TSP.
TYPE : TSP
DIMENSION : 10
EDGE_WEIGHT_TYPE : EUC_2D
NODE_COORD_SECTION
1 0 10
2 7.0711 7.0711
3 10 0
4 7.0711 -7.0711
5 0 -10
6 -7.0711 -7.0711
7 -7.0711 7.0711
8 3 1
9 -3 1
10 0 -1
EOF
